POSCAR prepared with J-ICE null whose atoms are: 288  192  C,  H
1.0
6.79922 0 -2.93248
0.009313033 5.700725 -1.2331241
0 0 13.390278
 C  H
288  192
Direct
  [
          0.126830000     0.047690000     0.399950000
         -0.126830000    -0.047690000    -0.399950000
          0.152750000     0.175070000     0.330090000
         -0.152750000    -0.175070000    -0.330090000
          0.087030000     0.083280000     0.211650000
         -0.087030000    -0.083280000    -0.211650000
          0.114230000     0.208050000     0.138760000
         -0.114230000    -0.208050000    -0.138760000
          0.048650000     0.115280000     0.022290000
         -0.048650000    -0.115280000    -0.022290000
          0.075130000     0.240130000    -0.052100000
         -0.075130000    -0.240130000     0.052100000
         -0.009400000    -0.147180000     0.167200000
          0.009400000     0.147180000    -0.167200000
         -0.034640000    -0.272960000     0.243580000
          0.034640000     0.272960000    -0.243580000
          0.031810000    -0.178910000     0.356100000
         -0.031810000     0.178910000    -0.356100000
          0.178270000     0.119380000     0.489580000
         -0.178270000    -0.119380000    -0.489580000
          0.224020000     0.348320000     0.362460000
         -0.224020000    -0.348320000    -0.362460000
          0.187950000     0.379700000     0.172040000
         -0.187950000    -0.379700000    -0.172040000
          0.148260000     0.412080000    -0.018780000
         -0.148260000    -0.412080000     0.018780000
         -0.108200000    -0.444590000     0.209810000
          0.108200000     0.444590000    -0.209810000
          0.011140000    -0.276180000     0.412850000
         -0.011140000     0.276180000    -0.412850000
         -0.457500000    -0.429370000     0.387270000
          0.457500000     0.429370000    -0.387270000
          0.480340000    -0.305420000     0.301820000
         -0.480340000     0.305420000    -0.301820000
          0.498170000    -0.405810000     0.197210000
         -0.498170000     0.405810000    -0.197210000
          0.437130000    -0.282350000     0.108940000
         -0.437130000     0.282350000    -0.108940000
          0.457400000    -0.381720000     0.006700000
         -0.457400000     0.381720000    -0.006700000
          0.396670000    -0.257920000    -0.082900000
         -0.396670000     0.257920000     0.082900000
         -0.416690000     0.358070000     0.183910000
          0.416690000    -0.358070000    -0.183910000
         -0.353260000     0.235590000     0.276150000
          0.353260000    -0.235590000    -0.276150000
         -0.372980000     0.339000000     0.374490000
          0.372980000    -0.339000000    -0.374490000
         -0.471920000    -0.351340000     0.466000000
          0.471920000     0.351340000    -0.466000000
          0.415770000    -0.129120000     0.311390000
         -0.415770000     0.129120000    -0.311390000
          0.372870000    -0.106030000     0.118940000
         -0.372870000     0.106030000    -0.118940000
          0.332090000    -0.081760000    -0.072930000
         -0.332090000     0.081760000     0.072930000
         -0.288280000     0.059620000     0.266130000
          0.288280000    -0.059620000    -0.266130000
         -0.324070000     0.245040000     0.443970000
          0.324070000    -0.245040000    -0.443970000
          0.126830000     0.047700000     1.399950000
         -0.126830000    -0.047690000     0.600050000
          0.152750000     0.175070000     1.330090000
         -0.152750000    -0.175080000     0.669910000
          0.087030000     0.083290000     1.211650000
         -0.087030000    -0.083290000     0.788350000
          0.114250000     0.208040000     1.138760000
         -0.114240000    -0.208040000     0.861240000
          0.048650000     0.115270000     1.022290000
         -0.048650000    -0.115280000     0.977710000
          0.075120000     0.240120000     0.947900000
         -0.075130000    -0.240140000     1.052100000
         -0.009400000    -0.147170000     1.167200000
          0.009400000     0.147180000     0.832800000
         -0.034640000    -0.272970000     1.243580000
          0.034640000     0.272950000     0.756420000
          0.031810000    -0.178890000     1.356100000
         -0.031820000     0.178900000     0.643900000
          0.178260000     0.119370000     1.489580000
         -0.178270000    -0.119370000     0.510420000
          0.224010000     0.348310000     1.362460000
         -0.224020000    -0.348310000     0.637540000
          0.187950000     0.379700000     1.172040000
         -0.187950000    -0.379690000     0.827960000
          0.148270000     0.412070000     0.981220000
         -0.148260000    -0.412090000     1.018780000
         -0.108190000    -0.444600000     1.209810000
          0.108200000     0.444610000     0.790190000
          0.011140000    -0.276180000     1.412850000
         -0.011140000     0.276170000     0.587150000
         -0.457510000    -0.429360000     1.387270000
          0.457500000     0.429370000     0.612730000
          0.480350000    -0.305420000     1.301820000
         -0.480340000     0.305410000     0.698180000
          0.498170000    -0.405790000     1.197210000
         -0.498170000     0.405800000     0.802790000
          0.437130000    -0.282340000     1.108940000
         -0.437130000     0.282350000     0.891060000
          0.457400000    -0.381720000     1.006700000
         -0.457410000     0.381710000     0.993300000
          0.396680000    -0.257920000     0.917100000
         -0.396680000     0.257910000     1.082900000
         -0.416700000     0.358060000     1.183910000
          0.416690000    -0.358060000     0.816090000
         -0.353260000     0.235600000     1.276150000
          0.353260000    -0.235600000     0.723850000
         -0.372980000     0.338990000     1.374490000
          0.372980000    -0.338980000     0.625510000
         -0.471930000    -0.351340000     1.466000000
          0.471940000     0.351330000     0.534000000
          0.415770000    -0.129120000     1.311390000
         -0.415770000     0.129130000     0.688610000
          0.372860000    -0.106040000     1.118940000
         -0.372860000     0.106030000     0.881060000
          0.332080000    -0.081770000     0.927070000
         -0.332070000     0.081770000     1.072930000
         -0.288270000     0.059610000     1.266130000
          0.288280000    -0.059630000     0.733870000
         -0.324060000     0.245040000     1.443970000
          0.324070000    -0.245030000     0.556030000
          0.126830000     1.047690000     0.399950000
         -0.126830000     0.952320000    -0.399950000
          0.152750000     1.175080000     0.330090000
         -0.152750000     0.824930000    -0.330090000
          0.087020000     1.083290000     0.211650000
         -0.087030000     0.916700000    -0.211650000
          0.114250000     1.208030000     0.138760000
         -0.114230000     0.791960000    -0.138760000
          0.048640000     1.115280000     0.022290000
         -0.048650000     0.884730000    -0.022290000
          0.075130000     1.240140000    -0.052100000
         -0.075130000     0.759870000     0.052100000
         -0.009400000     0.852820000     0.167200000
          0.009400000     1.147170000    -0.167200000
         -0.034640000     0.727050000     0.243580000
          0.034630000     1.272960000    -0.243580000
          0.031810000     0.821100000     0.356100000
         -0.031810000     1.178890000    -0.356100000
          0.178270000     1.119370000     0.489580000
         -0.178270000     0.880630000    -0.489580000
          0.224010000     1.348310000     0.362460000
         -0.224020000     0.651690000    -0.362460000
          0.187950000     1.379690000     0.172040000
         -0.187940000     0.620300000    -0.172040000
          0.148280000     1.412090000    -0.018780000
         -0.148270000     0.587920000     0.018780000
         -0.108180000     0.555390000     0.209810000
          0.108190000     1.444600000    -0.209810000
          0.011130000     0.723830000     0.412850000
         -0.011140000     1.276180000    -0.412850000
         -0.457510000     0.570630000     0.387270000
          0.457500000     1.429360000    -0.387270000
          0.480340000     0.694590000     0.301820000
         -0.480340000     1.305420000    -0.301820000
          0.498160000     0.594200000     0.197210000
         -0.498170000     1.405790000    -0.197210000
          0.437130000     0.717650000     0.108940000
         -0.437130000     1.282340000    -0.108940000
          0.457400000     0.618290000     0.006700000
         -0.457400000     1.381720000    -0.006700000
          0.396670000     0.742090000    -0.082900000
         -0.396680000     1.257920000     0.082900000
         -0.416690000     1.358050000     0.183910000
          0.416690000     0.641940000    -0.183910000
         -0.353260000     1.235600000     0.276150000
          0.353260000     0.764400000    -0.276150000
         -0.372970000     1.338990000     0.374490000
          0.372980000     0.661010000    -0.374490000
         -0.471920000     0.648670000     0.466000000
          0.471930000     1.351340000    -0.466000000
          0.415770000     0.870870000     0.311390000
         -0.415780000     1.129120000    -0.311390000
          0.372860000     0.893970000     0.118940000
         -0.372870000     1.106040000    -0.118940000
          0.332090000     0.918230000    -0.072930000
         -0.332080000     1.081770000     0.072930000
         -0.288290000     1.059630000     0.266130000
          0.288280000     0.940380000    -0.266130000
         -0.324050000     1.245030000     0.443970000
          0.324060000     0.754960000    -0.443970000
          0.126830000     1.047690000     1.399950000
         -0.126830000     0.952310000     0.600050000
          0.152750000     1.175070000     1.330090000
         -0.152760000     0.824930000     0.669910000
          0.087030000     1.083280000     1.211650000
         -0.087030000     0.916720000     0.788350000
          0.114240000     1.208050000     1.138760000
         -0.114240000     0.791950000     0.861240000
          0.048640000     1.115280000     1.022290000
         -0.048650000     0.884720000     0.977710000
          0.075120000     1.240130000     0.947900000
         -0.075130000     0.759870000     1.052100000
         -0.009400000     0.852810000     1.167200000
          0.009400000     1.147190000     0.832800000
         -0.034640000     0.727040000     1.243580000
          0.034640000     1.272960000     0.756420000
          0.031830000     0.821100000     1.356100000
         -0.031820000     1.178900000     0.643900000
          0.178260000     1.119380000     1.489580000
         -0.178270000     0.880640000     0.510420000
          0.224010000     1.348320000     1.362460000
         -0.224000000     0.651700000     0.637540000
          0.187950000     1.379710000     1.172040000
         -0.187950000     0.620290000     0.827960000
          0.148270000     1.412080000     0.981220000
         -0.148270000     0.587920000     1.018780000
         -0.108190000     0.555400000     1.209810000
          0.108200000     1.444600000     0.790190000
          0.011140000     0.723820000     1.412850000
         -0.011140000     1.276180000     0.587150000
         -0.457500000     0.570620000     1.387270000
          0.457500000     1.429370000     0.612730000
          0.480340000     0.694580000     1.301820000
         -0.480340000     1.305420000     0.698180000
          0.498180000     0.594190000     1.197210000
         -0.498170000     1.405800000     0.802790000
          0.437130000     0.717640000     1.108940000
         -0.437130000     1.282350000     0.891060000
          0.457400000     0.618280000     1.006700000
         -0.457400000     1.381720000     0.993300000
          0.396690000     0.742080000     0.917100000
         -0.396680000     1.257920000     1.082900000
         -0.416700000     1.358060000     1.183910000
          0.416690000     0.641930000     0.816090000
         -0.353260000     1.235610000     1.276150000
          0.353250000     0.764410000     0.723850000
         -0.372980000     1.339000000     1.374490000
          0.372980000     0.661000000     0.625510000
         -0.471930000     0.648660000     1.466000000
          0.471940000     1.351340000     0.534000000
          0.415770000     0.870880000     1.311390000
         -0.415760000     1.129120000     0.688610000
          0.372860000     0.893970000     1.118940000
         -0.372850000     1.106030000     0.881060000
          0.332080000     0.918240000     0.927070000
         -0.332080000     1.081780000     1.072930000
         -0.288280000     1.059620000     1.266130000
          0.288280000     0.940380000     0.733870000
         -0.324060000     1.245040000     1.443970000
          0.324060000     0.754960000     0.556030000
          1.126840000     0.047690000     0.399950000
          0.873170000    -0.047690000    -0.399950000
          1.152740000     0.175070000     0.330090000
          0.847260000    -0.175070000    -0.330090000
          1.087030000     0.083280000     0.211650000
          0.912970000    -0.083280000    -0.211650000
          1.114240000     0.208050000     0.138760000
          0.885760000    -0.208050000    -0.138760000
          1.048650000     0.115280000     0.022290000
          0.951350000    -0.115280000    -0.022290000
          1.075130000     0.240130000    -0.052100000
          0.924870000    -0.240130000     0.052100000
          0.990610000    -0.147180000     0.167200000
          1.009390000     0.147180000    -0.167200000
          0.965360000    -0.272960000     0.243580000
          1.034640000     0.272960000    -0.243580000
          1.031820000    -0.178910000     0.356100000
          0.968180000     0.178910000    -0.356100000
          1.178280000     0.119380000     0.489580000
          0.821720000    -0.119380000    -0.489580000
          1.224010000     0.348320000     0.362460000
          0.775990000    -0.348320000    -0.362460000
          1.187950000     0.379700000     0.172040000
          0.812050000    -0.379700000    -0.172040000
          1.148270000     0.412080000    -0.018780000
          0.851730000    -0.412080000     0.018780000
          0.891810000    -0.444590000     0.209810000
          1.108190000     0.444590000    -0.209810000
          1.011140000    -0.276180000     0.412850000
          0.988860000     0.276180000    -0.412850000
          0.542500000    -0.429370000     0.387270000
          1.457500000     0.429370000    -0.387270000
          1.480340000    -0.305420000     0.301820000
          0.519660000     0.305420000    -0.301820000
          1.498170000    -0.405810000     0.197210000
          0.501830000     0.405810000    -0.197210000
          1.437130000    -0.282350000     0.108940000
          0.562870000     0.282350000    -0.108940000
          1.457400000    -0.381720000     0.006700000
          0.542600000     0.381720000    -0.006700000
          1.396680000    -0.257920000    -0.082900000
          0.603320000     0.257920000     0.082900000
          0.583320000     0.358070000     0.183910000
          1.416690000    -0.358070000    -0.183910000
          0.646730000     0.235590000     0.276150000
          1.353270000    -0.235590000    -0.276150000
          0.627020000     0.339000000     0.374490000
          1.372980000    -0.339000000    -0.374490000
          0.528070000    -0.351340000     0.466000000
          1.471930000     0.351340000    -0.466000000
          1.415770000    -0.129120000     0.311390000
          0.584230000     0.129120000    -0.311390000
          1.372860000    -0.106030000     0.118940000
          0.627140000     0.106030000    -0.118940000
          1.332080000    -0.081760000    -0.072930000
          0.667920000     0.081760000     0.072930000
          0.711720000     0.059620000     0.266130000
          1.288280000    -0.059620000    -0.266130000
          0.675940000     0.245040000     0.443970000
          1.324060000    -0.245040000    -0.443970000
          1.126830000     0.047700000     1.399950000
          0.873170000    -0.047690000     0.600050000
          1.152760000     0.175070000     1.330090000
          0.847250000    -0.175080000     0.669910000
          1.087030000     0.083290000     1.211650000
          0.912970000    -0.083290000     0.788350000
          1.114240000     0.208040000     1.138760000
          0.885760000    -0.208040000     0.861240000
          1.048650000     0.115270000     1.022290000
          0.951360000    -0.115280000     0.977710000
          1.075130000     0.240120000     0.947900000
          0.924860000    -0.240140000     1.052100000
          0.990600000    -0.147170000     1.167200000
          1.009410000     0.147180000     0.832800000
          0.965350000    -0.272970000     1.243580000
          1.034640000     0.272950000     0.756420000
          1.031820000    -0.178890000     1.356100000
          0.968170000     0.178900000     0.643900000
          1.178270000     0.119370000     1.489580000
          0.821740000    -0.119370000     0.510420000
          1.224000000     0.348310000     1.362460000
          0.775990000    -0.348310000     0.637540000
          1.187950000     0.379700000     1.172040000
          0.812050000    -0.379690000     0.827960000
          1.148270000     0.412070000     0.981220000
          0.851730000    -0.412090000     1.018780000
          0.891810000    -0.444600000     1.209810000
          1.108190000     0.444610000     0.790190000
          1.011140000    -0.276180000     1.412850000
          0.988870000     0.276170000     0.587150000
          0.542500000    -0.429360000     1.387270000
          1.457490000     0.429370000     0.612730000
          1.480340000    -0.305420000     1.301820000
          0.519660000     0.305410000     0.698180000
          1.498170000    -0.405790000     1.197210000
          0.501820000     0.405800000     0.802790000
          1.437140000    -0.282340000     1.108940000
          0.562870000     0.282350000     0.891060000
          1.457400000    -0.381720000     1.006700000
          0.542600000     0.381710000     0.993300000
          1.396680000    -0.257920000     0.917100000
          0.603310000     0.257910000     1.082900000
          0.583310000     0.358060000     1.183910000
          1.416690000    -0.358060000     0.816090000
          0.646750000     0.235600000     1.276150000
          1.353260000    -0.235600000     0.723850000
          0.627020000     0.338990000     1.374490000
          1.372980000    -0.338980000     0.625510000
          0.528070000    -0.351340000     1.466000000
          1.471930000     0.351330000     0.534000000
          1.415760000    -0.129120000     1.311390000
          0.584230000     0.129130000     0.688610000
          1.372850000    -0.106040000     1.118940000
          0.627140000     0.106030000     0.881060000
          1.332080000    -0.081770000     0.927070000
          0.667920000     0.081770000     1.072930000
          0.711720000     0.059610000     1.266130000
          1.288280000    -0.059630000     0.733870000
          0.675940000     0.245040000     1.443970000
          1.324060000    -0.245030000     0.556030000
          1.126830000     1.047690000     0.399950000
          0.873180000     0.952320000    -0.399950000
          1.152750000     1.175080000     0.330090000
          0.847260000     0.824930000    -0.330090000
          1.087030000     1.083290000     0.211650000
          0.912970000     0.916700000    -0.211650000
          1.114240000     1.208030000     0.138760000
          0.885760000     0.791960000    -0.138760000
          1.048650000     1.115280000     0.022290000
          0.951350000     0.884730000    -0.022290000
          1.075130000     1.240140000    -0.052100000
          0.924860000     0.759870000     0.052100000
          0.990610000     0.852820000     0.167200000
          1.009400000     1.147170000    -0.167200000
          0.965360000     0.727050000     0.243580000
          1.034640000     1.272960000    -0.243580000
          1.031820000     0.821100000     0.356100000
          0.968180000     1.178890000    -0.356100000
          1.178280000     1.119370000     0.489580000
          0.821720000     0.880630000    -0.489580000
          1.224010000     1.348310000     0.362460000
          0.775990000     0.651690000    -0.362460000
          1.187950000     1.379690000     0.172040000
          0.812050000     0.620300000    -0.172040000
          1.148270000     1.412090000    -0.018780000
          0.851730000     0.587920000     0.018780000
          0.891810000     0.555390000     0.209810000
          1.108190000     1.444600000    -0.209810000
          1.011140000     0.723830000     0.412850000
          0.988860000     1.276180000    -0.412850000
          0.542500000     0.570630000     0.387270000
          1.457500000     1.429360000    -0.387270000
          1.480340000     0.694590000     0.301820000
          0.519650000     1.305420000    -0.301820000
          1.498170000     0.594200000     0.197210000
          0.501830000     1.405790000    -0.197210000
          1.437130000     0.717650000     0.108940000
          0.562870000     1.282340000    -0.108940000
          1.457390000     0.618290000     0.006700000
          0.542600000     1.381720000    -0.006700000
          1.396680000     0.742090000    -0.082900000
          0.603320000     1.257920000     0.082900000
          0.583310000     1.358050000     0.183910000
          1.416680000     0.641940000    -0.183910000
          0.646730000     1.235600000     0.276150000
          1.353270000     0.764400000    -0.276150000
          0.627020000     1.338990000     0.374490000
          1.372980000     0.661010000    -0.374490000
          0.528070000     0.648670000     0.466000000
          1.471930000     1.351340000    -0.466000000
          1.415770000     0.870870000     0.311390000
          0.584230000     1.129120000    -0.311390000
          1.372860000     0.893970000     0.118940000
          0.627140000     1.106040000    -0.118940000
          1.332080000     0.918230000    -0.072930000
          0.667920000     1.081770000     0.072930000
          0.711720000     1.059630000     0.266130000
          1.288280000     0.940380000    -0.266130000
          0.675940000     1.245030000     0.443970000
          1.324060000     0.754960000    -0.443970000
          1.126830000     1.047690000     1.399950000
          0.873170000     0.952310000     0.600050000
          1.152760000     1.175070000     1.330090000
          0.847250000     0.824930000     0.669910000
          1.087030000     1.083280000     1.211650000
          0.912970000     0.916720000     0.788350000
          1.114240000     1.208050000     1.138760000
          0.885760000     0.791950000     0.861240000
          1.048650000     1.115280000     1.022290000
          0.951360000     0.884720000     0.977710000
          1.075130000     1.240130000     0.947900000
          0.924870000     0.759870000     1.052100000
          0.990600000     0.852810000     1.167200000
          1.009400000     1.147190000     0.832800000
          0.965350000     0.727040000     1.243580000
          1.034640000     1.272960000     0.756420000
          1.031820000     0.821100000     1.356100000
          0.968190000     1.178900000     0.643900000
          1.178270000     1.119380000     1.489580000
          0.821740000     0.880640000     0.510420000
          1.224020000     1.348320000     1.362460000
          0.775990000     0.651700000     0.637540000
          1.187950000     1.379710000     1.172040000
          0.812050000     0.620290000     0.827960000
          1.148270000     1.412080000     0.981220000
          0.851730000     0.587920000     1.018780000
          0.891800000     0.555400000     1.209810000
          1.108190000     1.444600000     0.790190000
          1.011140000     0.723820000     1.412850000
          0.988860000     1.276180000     0.587150000
          0.542500000     0.570620000     1.387270000
          1.457490000     1.429370000     0.612730000
          1.480340000     0.694580000     1.301820000
          0.519660000     1.305420000     0.698180000
          1.498170000     0.594190000     1.197210000
          0.501820000     1.405800000     0.802790000
          1.437140000     0.717640000     1.108940000
          0.562870000     1.282350000     0.891060000
          1.457410000     0.618280000     1.006700000
          0.542600000     1.381720000     0.993300000
          1.396680000     0.742080000     0.917100000
          0.603310000     1.257920000     1.082900000
          0.583310000     1.358060000     1.183910000
          1.416690000     0.641930000     0.816090000
          0.646750000     1.235610000     1.276150000
          1.353260000     0.764410000     0.723850000
          0.627020000     1.339000000     1.374490000
          1.372980000     0.661000000     0.625510000
          0.528060000     0.648660000     1.466000000
          1.471930000     1.351340000     0.534000000
          1.415770000     0.870880000     1.311390000
          0.584230000     1.129120000     0.688610000
          1.372870000     0.893970000     1.118940000
          0.627140000     1.106030000     0.881060000
          1.332080000     0.918240000     0.927070000
          0.667920000     1.081780000     1.072930000
          0.711720000     1.059620000     1.266130000
          1.288280000     0.940380000     0.733870000
          0.675940000     1.245040000     1.443970000
          1.324060000     0.754960000     0.556030000
  ]
